instances/in_50_25_8_2.dzn
n = 50;
k = 25;
h = 8;
tiles = array2d(1..n, 1..2,
[ 20,20
, 14,12
, 19,20
, 13,22
, 24,10
, 18,12
, 13,23
, 7,16
, 23,12
, 1,9
, 14,16
, 16,5
, 20,23
, 16,11
, 24,19
, 5,5
, 10,10
, 7,5
, 4,22
, 10,4
, 8,18
, 9,4
, 23,11
, 12,1
, 14,19
, 4,25
, 11,12
, 8,24
, 14,15
, 2,5
, 6,11
, 1,14
, 10,11
, 9,6
, 25,13
, 17,22
, 6,23
, 7,24
, 24,16
, 11,22
, 12,20
, 7,22
, 11,4
, 25,5
, 1,5
, 11,7
, 9,19
, 19,25
, 18,25
, 22,8
]);