instances/in_50_25_8_2.lp
#const n = 50.
#const k = 25.
#const h = 8.
tile(1,20,20).
tile(2,14,12).
tile(3,19,20).
tile(4,13,22).
tile(5,24,10).
tile(6,18,12).
tile(7,13,23).
tile(8,7,16).
tile(9,23,12).
tile(10,1,9).
tile(11,14,16).
tile(12,16,5).
tile(13,20,23).
tile(14,16,11).
tile(15,24,19).
tile(16,5,5).
tile(17,10,10).
tile(18,7,5).
tile(19,4,22).
tile(20,10,4).
tile(21,8,18).
tile(22,9,4).
tile(23,23,11).
tile(24,12,1).
tile(25,14,19).
tile(26,4,25).
tile(27,11,12).
tile(28,8,24).
tile(29,14,15).
tile(30,2,5).
tile(31,6,11).
tile(32,1,14).
tile(33,10,11).
tile(34,9,6).
tile(35,25,13).
tile(36,17,22).
tile(37,6,23).
tile(38,7,24).
tile(39,24,16).
tile(40,11,22).
tile(41,12,20).
tile(42,7,22).
tile(43,11,4).
tile(44,25,5).
tile(45,1,5).
tile(46,11,7).
tile(47,9,19).
tile(48,19,25).
tile(49,18,25).
tile(50,22,8).
